20
12	307	303	61	84
9	296	90	23	25
13	218	125	60	3
21	171	21	68	9
27	205	175	8	36
24	134	340	70	7
8	20	337	43	28
21	169	252	34	59
26	197	276	99	21
20	178	62	92	21
15	183	260	62	1
18	151	114	50	21
24	250	156	24	51
15	120	220	41	7
24	97	62	25	99
2	178	343	78	0
15	296	264	8	65
4	275	214	96	38
5	121	133	67	18
5	85	209	8	30
